(declare-const |main__t':140:160:167:336:460:843| Int)
(declare-const __VERIFIER_assert__cond___7 Int)
(declare-const __VERIFIER_assert__cond___16 Int)
(declare-const |phi___VERIFIER_assert__cond___16:343:458:841| Int)
(declare-const |phi_main__t:349:452:835| Int)
(declare-const |phi___VERIFIER_assert__cond___15:344:457:840| Int)
(declare-const |main____CPAchecker_TMP_4':296:321:330:828:857| Int)
(declare-const havoc Int)
(declare-const |__VERIFIER_assert__cond___4':298:319:328:826:855| Int)
(declare-const |__VERIFIER_assert__cond___8':300:316:325:823:852| Int)
(declare-const |__tmp_383_0':139:163:170:339:463:846| Int)
(declare-const |havoc:3:58:832| Int)
(declare-const |__VERIFIER_assert__cond___16':144:164:171:340:464:847| Int)
(declare-const __VERIFIER_assert__cond___8 Int)
(declare-const |main__t':140:317:326:824:853| Int)
(declare-const |K:313:314:323:821:850| Int)
(declare-const |phi_main____CPAchecker_TMP_0:348:453:836| Int)
(declare-const |main____CPAchecker_TMP_3':295:322:331:829:858| Int)
(declare-const |phi___VERIFIER_assert__cond___11:347:454:837| Int)
(declare-const main____CPAchecker_TMP_6 Int)
(declare-const |phi_main____CPAchecker_TMP_0___0:345:456:839| Int)
(declare-const |havoc:9:59:138:334:342:466:849| Int)
(declare-const |__VERIFIER_assert__cond___3':297:320:329:827:856| Int)
(declare-const main____CPAchecker_TMP_4 Int)
(declare-const |__VERIFIER_assert__cond___7':299:315:324:822:851| Int)
(declare-const |K:158:159:166:335:459:842| Int)
(declare-const __VERIFIER_assert__cond___3 Int)
(declare-const |__VERIFIER_assert__cond___15':143:161:168:337:461:844| Int)
(declare-const |havoc:24:60:273:332:830:859| Int)
(declare-const main____CPAchecker_TMP_3 Int)
(declare-const __VERIFIER_assert__cond___11 Int)
(declare-const __VERIFIER_assert__cond___12 Int)
(declare-const __tmp_383_0 Int)
(declare-const |phi___tmp_383_0:351:450:833| Int)
(declare-const |phi___tmp_247_0:350:451:834| Int)
(declare-const __VERIFIER_assert__cond___4 Int)
(declare-const |main____CPAchecker_TMP_0':141:162:169:338:462:845| Int)
(declare-const |phi___VERIFIER_assert__cond___12:346:455:838| Int)
(declare-const main____CPAchecker_TMP_0___0 Int)
(declare-const __VERIFIER_assert__cond___15 Int)
(declare-const |main____CPAchecker_TMP_6':301:318:327:825:854| Int)
(declare-const |main____CPAchecker_TMP_0___0':142:165:172:341:465:848| Int)
(declare-const |havoc:31:62:722:831:860| Int)
(assert (and (<= (+ (- havoc) 1) 0) (not (= (+ (- havoc) 1) 0))
               (or (and (not (= |havoc:3:58:832| 0))
                          (= (+ (- |phi___tmp_383_0:351:450:833|) __tmp_383_0) 0)
                          (= (+ (- |phi___tmp_247_0:350:451:834|)
                                  |havoc:3:58:832|) 0)
                          (= (- |phi_main__t:349:452:835|) 0)
                          (= (+ (- |phi_main____CPAchecker_TMP_0:348:453:836|)
                                  |havoc:3:58:832|) 0)
                          (= (+ (- |phi___VERIFIER_assert__cond___11:347:454:837|)
                                  __VERIFIER_assert__cond___11) 0)
                          (= (+ (- |phi___VERIFIER_assert__cond___12:346:455:838|)
                                  __VERIFIER_assert__cond___12) 0)
                          (= (+ (- |phi_main____CPAchecker_TMP_0___0:345:456:839|)
                                  main____CPAchecker_TMP_0___0) 0)
                          (= (+ (- |phi___VERIFIER_assert__cond___15:344:457:840|)
                                  __VERIFIER_assert__cond___15) 0)
                          (= (+ (- |phi___VERIFIER_assert__cond___16:343:458:841|)
                                  __VERIFIER_assert__cond___16) 0))
                     (and (= |havoc:3:58:832| 0)
                            (not (= (ite (<= (+ (- havoc) 1) 0) 1 0) 0))
                            (or (not (<= (- |K:158:159:166:335:459:842|) 0))
                                  (= (+ |main__t':140:160:167:336:460:843|
                                          (- |K:158:159:166:335:459:842|)) 0))
                            (or (not (and (<= (- |K:158:159:166:335:459:842|) 0)
                                            (<= |K:158:159:166:335:459:842| 0)))
                                  (= (+ |__VERIFIER_assert__cond___15':143:161:168:337:461:844|
                                          (- __VERIFIER_assert__cond___15)) 0))
                            (or (not (<= (+ (- |K:158:159:166:335:459:842|) 1) 0))
                                  (= (+ |__VERIFIER_assert__cond___15':143:161:168:337:461:844|
                                          -1) 0))
                            (or (not (and (<= (- |K:158:159:166:335:459:842|) 0)
                                            (<= |K:158:159:166:335:459:842| 0)))
                                  (= (+ |main____CPAchecker_TMP_0':141:162:169:338:462:845|
                                          (- |havoc:3:58:832|)) 0))
                            (or (not (<= (+ (- |K:158:159:166:335:459:842|) 1) 0))
                                  (= |main____CPAchecker_TMP_0':141:162:169:338:462:845| 0))
                            (or (not (and (<= (- |K:158:159:166:335:459:842|) 0)
                                            (<= |K:158:159:166:335:459:842| 0)))
                                  (= (+ |__tmp_383_0':139:163:170:339:463:846|
                                          (- |havoc:3:58:832|)) 0))
                            (or (not (<= (+ (- |K:158:159:166:335:459:842|) 1) 0))
                                  (= |__tmp_383_0':139:163:170:339:463:846| 0))
                            (or (not (and (<= (- |K:158:159:166:335:459:842|) 0)
                                            (<= |K:158:159:166:335:459:842| 0)))
                                  (= (+ |__VERIFIER_assert__cond___16':144:164:171:340:464:847|
                                          (- __VERIFIER_assert__cond___16)) 0))
                            (or (not (<= (+ (- |K:158:159:166:335:459:842|) 1) 0))
                                  (= (+ |__VERIFIER_assert__cond___16':144:164:171:340:464:847|
                                          -1) 0))
                            (or (not (and (<= (- |K:158:159:166:335:459:842|) 0)
                                            (<= |K:158:159:166:335:459:842| 0)))
                                  (= (+ |main____CPAchecker_TMP_0___0':142:165:172:341:465:848|
                                          (- main____CPAchecker_TMP_0___0)) 0))
                            (or (not (<= (+ (- |K:158:159:166:335:459:842|) 1) 0))
                                  (= |main____CPAchecker_TMP_0___0':142:165:172:341:465:848| 0))
                            (or (and (= |K:158:159:166:335:459:842| 0)
                                       (= (+ (- |__VERIFIER_assert__cond___16':144:164:171:340:464:847|)
                                               __VERIFIER_assert__cond___16) 0)
                                       (= (+ (- |__VERIFIER_assert__cond___15':143:161:168:337:461:844|)
                                               __VERIFIER_assert__cond___15) 0)
                                       (= (+ (- |main____CPAchecker_TMP_0___0':142:165:172:341:465:848|)
                                               main____CPAchecker_TMP_0___0) 0)
                                       (= (+ (- |main____CPAchecker_TMP_0':141:162:169:338:462:845|)
                                               |havoc:3:58:832|) 0)
                                       (= (- |main__t':140:160:167:336:460:843|) 0)
                                       (= (+ (- |__tmp_383_0':139:163:170:339:463:846|)
                                               |havoc:3:58:832|) 0))
                                  (and (<= (+ (- |K:158:159:166:335:459:842|)
                                                1) 0) (= |havoc:3:58:832| 0)
                                         (= |havoc:3:58:832| 0)
                                         (<= (+ (- havoc) 3) 0)
                                         (= (+ |__VERIFIER_assert__cond___16':144:164:171:340:464:847|
                                                 -1) 0)
                                         (= (+ |__VERIFIER_assert__cond___15':143:161:168:337:461:844|
                                                 -1) 0)
                                         (= |main____CPAchecker_TMP_0':141:162:169:338:462:845| 0)
                                         (= |main____CPAchecker_TMP_0___0':142:165:172:341:465:848| 0)
                                         (= |__tmp_383_0':139:163:170:339:463:846| 0)
                                         (<= (+ |main__t':140:160:167:336:460:843|
                                                  (- havoc) 2) 0)
                                         (<= (+ (- |main__t':140:160:167:336:460:843|)
                                                  1) 0)))
                            (<= (- |K:158:159:166:335:459:842|) 0)
                            (= |__tmp_383_0':139:163:170:339:463:846| 0)
                            (= |main____CPAchecker_TMP_0':141:162:169:338:462:845| 0)
                            (<= (- |main__t':140:160:167:336:460:843|) 0)
                            (< (+ (- havoc) 1) 0)
                            (= |__tmp_383_0':139:163:170:339:463:846| 0)
                            (= |main____CPAchecker_TMP_0':141:162:169:338:462:845| 0)
                            (not (= (+ |main__t':140:160:167:336:460:843|
                                         (- havoc) 2) 0))
                            (not (= |havoc:9:59:138:334:342:466:849| 0))
                            (= (+ |__tmp_383_0':139:163:170:339:463:846|
                                    (- |phi___tmp_383_0:351:450:833|)) 0)
                            (= (+ |havoc:9:59:138:334:342:466:849|
                                    (- |phi___tmp_247_0:350:451:834|)) 0)
                            (= (+ |main__t':140:160:167:336:460:843|
                                    (- |phi_main__t:349:452:835|) 1) 0)
                            (= (+ |__tmp_383_0':139:163:170:339:463:846|
                                    (- |phi_main____CPAchecker_TMP_0:348:453:836|)) 0)
                            (= (+ (- |phi___VERIFIER_assert__cond___11:347:454:837|)
                                    1) 0)
                            (= (+ (ite (<= (+ (- havoc) 1) 0) 1 0)
                                    (- |phi___VERIFIER_assert__cond___12:346:455:838|)) 0)
                            (= (+ |havoc:9:59:138:334:342:466:849|
                                    (- |phi_main____CPAchecker_TMP_0___0:345:456:839|)) 0)
                            (= (+ |__VERIFIER_assert__cond___15':143:161:168:337:461:844|
                                    (- |phi___VERIFIER_assert__cond___15:344:457:840|)) 0)
                            (= (+ |__VERIFIER_assert__cond___16':144:164:171:340:464:847|
                                    (- |phi___VERIFIER_assert__cond___16:343:458:841|)) 0)))
               (not (= (ite (<= (- |phi_main__t:349:452:835|) 0) 1 0) 0))
               (not (= (ite (<= (+ |phi_main__t:349:452:835| (- havoc) 1) 0)
                            1 0) 0))
               (or (not (and (<= (- |K:313:314:323:821:850|) 0)
                               (<= |K:313:314:323:821:850| 0)))
                     (= (+ (- __VERIFIER_assert__cond___7)
                             |__VERIFIER_assert__cond___7':299:315:324:822:851|) 0))
               (or (not (<= (+ (- |K:313:314:323:821:850|) 1) 0))
                     (= (+ |__VERIFIER_assert__cond___7':299:315:324:822:851|
                             -1) 0))
               (or (not (and (<= (- |K:313:314:323:821:850|) 0)
                               (<= |K:313:314:323:821:850| 0)))
                     (= (+ (- __VERIFIER_assert__cond___8)
                             |__VERIFIER_assert__cond___8':300:316:325:823:852|) 0))
               (or (not (<= (+ (- |K:313:314:323:821:850|) 1) 0))
                     (= (+ |__VERIFIER_assert__cond___8':300:316:325:823:852|
                             -1) 0))
               (or (not (<= (- |K:313:314:323:821:850|) 0))
                     (<= (+ |main__t':140:317:326:824:853|
                              (* -2 |K:313:314:323:821:850|)
                              (- |phi_main__t:349:452:835|) -1) 0))
               (or (not (<= (- |K:313:314:323:821:850|) 0))
                     (<= (+ |main__t':140:317:326:824:853|
                              (* 2 |K:313:314:323:821:850|)
                              (- |phi_main__t:349:452:835|)
                              (- (* |K:313:314:323:821:850| havoc)) -1) 0))
               (or (not (<= (- |K:313:314:323:821:850|) 0))
                     (<= (+ (- |main__t':140:317:326:824:853|)
                              |K:313:314:323:821:850|
                              |phi_main__t:349:452:835| 1) 0))
               (or (and (= |K:313:314:323:821:850| 0)
                          (= (+ (- |main____CPAchecker_TMP_6':301:318:327:825:854|)
                                  main____CPAchecker_TMP_6) 0)
                          (= (+ __VERIFIER_assert__cond___8
                                  (- |__VERIFIER_assert__cond___8':300:316:325:823:852|)) 0)
                          (= (+ __VERIFIER_assert__cond___7
                                  (- |__VERIFIER_assert__cond___7':299:315:324:822:851|)) 0)
                          (= (+ (- |__VERIFIER_assert__cond___4':298:319:328:826:855|)
                                  __VERIFIER_assert__cond___4) 0)
                          (= (+ (- |__VERIFIER_assert__cond___3':297:320:329:827:856|)
                                  __VERIFIER_assert__cond___3) 0)
                          (= (+ (- |main____CPAchecker_TMP_4':296:321:330:828:857|)
                                  main____CPAchecker_TMP_4) 0)
                          (= (+ (- |main____CPAchecker_TMP_3':295:322:331:829:858|)
                                  main____CPAchecker_TMP_3) 0)
                          (= (+ (- |main__t':140:317:326:824:853|)
                                  |phi_main__t:349:452:835| 1) 0))
                     (and (<= (+ (- |K:313:314:323:821:850|) 1) 0)
                            (<= (+ |phi_main__t:349:452:835| (- havoc) 3) 0)
                            (<= (- |phi_main__t:349:452:835|) 0)
                            (= (+ |__VERIFIER_assert__cond___8':300:316:325:823:852|
                                    -1) 0)
                            (= (+ |__VERIFIER_assert__cond___7':299:315:324:822:851|
                                    -1) 0)
                            (<= (+ |main__t':140:317:326:824:853| (- havoc) 1) 0)
                            (<= (+ (- |main__t':140:317:326:824:853|) 2) 0)))
               (<= (- |K:313:314:323:821:850|) 0)
               (< (- |main__t':140:317:326:824:853|) 0) (< (+ (- havoc) 1) 0)
               (not (= (+ |main__t':140:317:326:824:853| (- havoc) 1) 0))
               (not (= |havoc:24:60:273:332:830:859| 0))
               (not (= |havoc:31:62:722:831:860| 0))
               (not (= (ite (<= (- |main__t':140:317:326:824:853|) 0) 1 0) 0))
               (not (= (ite (<= (+ |main__t':140:317:326:824:853| (- havoc) 1) 0)
                            1 0) 0))
               (= (+ |main__t':140:317:326:824:853| (- havoc) 2) 0)
               (= (ite (<= (+ (- |main__t':140:317:326:824:853|) -1) 0) 1 0) 0)))
(check-sat)
